Warehouses = 4;
Stores = 11;

Capacity = [60, 30, 100, 30];
FixedCost = [530, 370, 940, 220];
Goods = [17, 14, 14, 14, 19, 6, 17, 14, 6, 8, 19];
SupplyCost = [|68, 30, 60, 34
              |14, 58, 39, 27
              |5, 64, 54, 40
              |77, 20, 94, 57
              |52, 36, 41, 16
              |96, 66, 134, 96
              |49, 39, 37, 14
              |87, 60, 127, 89
              |68, 26, 64, 35
              |43, 43, 32, 10
              |81, 30, 105, 67|];
